300
500
400
399
397
396
395
393
392
390
390
390
385
385
383
383
381
380
379
376
375
370
368
367
366
366
366
366
365
365
364
362
362
361
360
359
358
358
357
356
355
355
351
351
350
350
350
349
348
347
347
345
343
342
341
339
338
338
337
337
336
336
335
334
332
332
329
329
329
328
327
327
327
326
325
323
323
323
323
322
320
320
318
318
318
315
315
314
313
309
307
307
304
303
301
300
299
297
297
295
295
294
293
293
291
288
288
286
286
284
282
282
281
281
280
280
280
279
279
279
278
278
278
277
276
276
275
275
274
274
271
271
269
266
264
264
263
263
261
261
258
257
257
255
254
251
251
250
250
249
248
247
247
247
247
245
245
244
243
242
241
241
240
240
240
239
239
236
235
234
234
233
232
232
230
230
229
229
227
227
221
221
220
220
218
216
214
214
212
209
208
204
202
201
200
199
194
194
193
192
192
191
187
186
186
184
184
183
183
181
181
180
180
178
178
176
174
174
174
173
172
171
171
168
167
165
163
162
161
160
159
159
158
157
157
156
155
154
151
148
147
147
147
145
145
145
145
145
144
143
142
140
140
139
138
138
137
135
134
134
134
134
133
132
131
131
130
129
127
126
125
125
124
123
123
121
120
120
118
116
116
115
114
114
114
114
113
112
111
111
110
109
108
108
107
107
107
107
105
104
101
101
